NAME : B-n50-k7
COMMENT : (Augerat et al, No of trucks: 7, Optimal value: 741)
TYPE : CVRP
DIMENSION : 50
EDGE_WEIGHT_TYPE : EUC_2D 
CAPACITY : 100
NODE_COORD_SECTION 
 1 49 53
 2 59 1
 3 17 83
 4 85 57
 5 47 21
 6 1 21
 7 25 69
 8 75 63
 9 3 7
 10 56 26
 11 86 58
 12 8 8
 13 59 27
 14 64 2
 15 86 64
 16 28 72
 17 88 58
 18 18 90
 19 82 64
 20 22 92
 21 6 10
 22 10 24
 23 59 29
 24 52 24
 25 94 62
 26 76 68
 27 66 2
 28 90 58
 29 20 84
 30 50 22
 31 76 64
 32 63 33
 33 20 84
 34 59 31
 35 32 74
 36 48 24
 37 2 30
 38 10 8
 39 57 27
 40 68 6
 41 28 74
 42 63 35
 43 86 58
 44 90 62
 45 22 90
 46 6 28
 47 62 8
 48 59 35
 49 18 88
 50 30 76
DEMAND_SECTION 
1 0 
2 21 
3 8 
4 11 
5 7 
6 21 
7 5 
8 13 
9 10 
10 9 
11 20 
12 7 
13 12 
14 23 
15 2 
16 4 
17 14 
18 12 
19 3 
20 5 
21 13 
22 5 
23 12 
24 2 
25 3 
26 18 
27 24 
28 4 
29 63 
30 19 
31 2 
32 9 
33 4 
34 9 
35 23 
36 6 
37 3 
38 12 
39 7 
40 17 
41 22 
42 26 
43 14 
44 9 
45 2 
46 16 
47 24 
48 4 
49 19 
50 11 
DEPOT_SECTION 
 1  
 -1  
EOF 
